c random assignment satisfied 5/430 clauses
o 425
c flipped 0/100 variables (k=0)
c solution improved by 178 clauses
o 247
c flipped 0/100 variables (k=0)
c solution improved by 9 clauses
o 238
c flipped 0/100 variables (k=0)
c solution improved by 39 clauses
o 199
c flipped 0/100 variables (k=0)
c solution improved by 4 clauses
o 195
c flipped 0/100 variables (k=0)
c solution improved by 1 clause
o 194
c flipped 0/100 variables (k=0)
c solution improved by 2 clauses
o 192
c flipped 0/100 variables (k=0)
c solution improved by 1 clause
o 191
c flipped 0/100 variables (k=0)
c solution improved by 41 clauses
o 150
c flipped 0/100 variables (k=0)
c solution improved by 16 clauses
o 134
c flipped 0/100 variables (k=0)
c solution improved by 1 clause
o 133
c flipped 0/100 variables (k=0)
c solution improved by 1 clause
o 132
c flipped 0/100 variables (k=0)
c solution improved by 1 clause
o 131
c flipped 0/100 variables (k=0)
c solution improved by 1 clause
o 130
c flipped 0/100 variables (k=0)
c solution improved by 8 clauses
o 122
c flipped 0/100 variables (k=0)
c solution improved by 8 clauses
o 114
c flipped 0/100 variables (k=0)
c solution improved by 1 clause
o 113
c flipped 0/100 variables (k=0)
c solution improved by 1 clause
o 112
c flipped 0/100 variables (k=0)
c solution improved by 1 clause
o 111
c flipped 0/100 variables (k=0)
c solution improved by 16 clauses
o 95
c flipped 0/100 variables (k=0)
c solution improved by 1 clause
o 94
c flipped 0/100 variables (k=0)
c solution improved by 1 clause
o 93
c flipped 0/100 variables (k=0)
c solution improved by 1 clause
o 92
c flipped 0/100 variables (k=0)
c solution improved by 16 clauses
o 76
c flipped 0/100 variables (k=0)
c solution improved by 1 clause
o 75
c flipped 0/100 variables (k=0)
c solution improved by 6 clauses
o 69
c flipped 0/100 variables (k=0)
c solution improved by 1 clause
o 68
c flipped 0/100 variables (k=0)
c solution improved by 8 clauses
o 60
c flipped 0/100 variables (k=0)
c solution improved by 5 clauses
o 55
c flipped 0/100 variables (k=0)
c solution improved by 1 clause
o 54
c flipped 0/100 variables (k=0)
c solution improved by 2 clauses
o 52
v 1000011111011101110000011110010101100001011000110101001010010000101110100010000001110101100100110001
c stuck at 378/430 clauses with k=0
s UNKNOWN
